400
50 50
1 40 62
2 40 434
3 40 266
4 40 984
5 40 685
6 40 327
7 40 697
8 40 658
9 40 556
10 40 349
11 40 312
12 40 966
13 39 156
14 39 985
15 39 131
16 39 126
17 39 927
18 39 605
19 39 804
20 39 824
21 39 234
22 39 11
23 39 387
24 38 352
25 38 652
26 38 620
27 38 464
28 38 385
29 38 847
30 38 22
31 38 477
32 38 936
33 38 124
34 38 788
35 37 794
36 37 322
37 37 375
38 37 742
39 37 715
40 37 367
41 37 628
42 37 978
43 37 925
44 37 410
45 36 379
46 36 375
47 36 891
48 36 944
49 36 891
50 36 616
51 36 874
52 36 640
53 36 703
54 36 400
55 35 22
56 35 45
57 35 745
58 35 749
59 35 893
60 35 694
61 34 246
62 34 973
63 34 572
64 34 761
65 34 821
66 34 661
67 34 604
68 34 317
69 34 713
70 34 137
71 34 202
72 33 688
73 33 344
74 33 829
75 33 691
76 33 725
77 33 885
78 33 653
79 33 687
80 33 340
81 33 239
82 32 279
83 32 14
84 32 502
85 32 24
86 32 876
87 32 600
88 32 117
89 32 513
90 32 854
91 32 474
92 32 713
93 31 805
94 31 779
95 31 809
96 31 207
97 31 288
98 31 510
99 31 912
100 31 226
101 31 652
102 31 442
103 30 933
104 30 301
105 30 607
106 30 80
107 30 844
108 30 169
109 29 546
110 29 632
111 29 525
112 29 528
113 29 313
114 29 304
115 29 880
116 28 243
117 28 481
118 28 156
119 28 929
120 28 566
121 28 767
122 28 50
123 27 903
124 27 372
125 27 283
126 27 872
127 27 835
128 27 429
129 27 286
130 27 803
131 27 311
132 27 457
133 27 243
134 26 111
135 26 5
136 26 736
137 26 667
138 26 308
139 26 31
140 26 655
141 26 829
142 26 834
143 26 316
144 26 568
145 25 776
146 25 288
147 25 88
148 25 751
149 25 738
150 25 492
151 25 653
152 25 702
153 25 133
154 25 926
155 24 637
156 24 652
157 24 57
158 24 400
159 24 92
160 24 317
161 24 300
162 24 182
163 24 824
164 24 319
165 24 472
166 24 96
167 24 843
168 23 556
169 23 840
170 23 736
171 23 912
172 23 234
173 23 59
174 23 670
175 23 963
176 23 860
177 23 892
178 23 537
179 23 115
180 23 117
181 23 72
182 22 41
183 22 201
184 22 513
185 22 599
186 22 299
187 22 255
188 22 286
189 21 614
190 21 389
191 21 330
192 21 414
193 21 484
194 21 146
195 21 417
196 21 388
197 21 324
198 21 7
199 21 786
200 20 79
201 20 870
202 20 535
203 20 197
204 20 896
205 20 599
206 20 870
207 20 31
208 20 249
209 20 771
210 20 431
211 20 500
212 20 257
213 20 155
214 19 489
215 19 354
216 19 185
217 19 468
218 19 149
219 19 727
220 19 631
221 19 309
222 19 496
223 18 548
224 18 329
225 18 432
226 18 371
227 18 45
228 18 538
229 18 519
230 18 853
231 18 318
232 18 265
233 18 448
234 17 743
235 17 133
236 17 631
237 17 114
238 17 405
239 17 735
240 17 482
241 17 188
242 17 269
243 17 742
244 17 683
245 16 760
246 16 534
247 16 770
248 16 549
249 16 690
250 16 327
251 16 64
252 16 716
253 16 731
254 16 339
255 16 194
256 16 986
257 16 159
258 16 370
259 15 250
260 15 320
261 15 755
262 15 568
263 15 695
264 15 232
265 15 16
266 15 423
267 15 352
268 15 617
269 15 512
270 15 493
271 15 893
272 14 921
273 14 160
274 14 923
275 14 522
276 14 267
277 14 717
278 14 970
279 14 583
280 14 977
281 14 287
282 13 390
283 13 820
284 13 353
285 13 184
286 13 624
287 13 48
288 13 808
289 13 66
290 13 368
291 13 104
292 13 222
293 13 279
294 13 736
295 13 248
296 12 484
297 12 476
298 12 242
299 12 743
300 12 315
301 12 272
302 12 339
303 12 221
304 12 236
305 12 180
306 12 814
307 12 967
308 11 590
309 11 271
310 11 398
311 11 269
312 11 279
313 11 195
314 11 123
315 11 4
316 11 579
317 11 810
318 11 339
319 11 410
320 11 31
321 11 113
322 11 293
323 11 11
324 10 578
325 10 345
326 10 265
327 10 17
328 10 86
329 10 77
330 10 463
331 10 462
332 10 688
333 10 964
334 10 963
335 10 292
336 10 646
337 10 251
338 9 215
339 9 918
340 9 1000
341 9 698
342 9 868
343 9 151
344 9 811
345 9 714
346 9 624
347 9 610
348 9 951
349 9 603
350 9 48
351 9 55
352 9 964
353 9 257
354 9 521
355 9 268
356 8 624
357 8 241
358 8 665
359 8 351
360 8 70
361 8 998
362 8 881
363 8 719
364 8 8
365 8 479
366 8 868
367 7 499
368 7 990
369 7 895
370 7 127
371 7 720
372 7 367
373 7 828
374 7 714
375 7 723
376 7 713
377 7 330
378 6 544
379 6 765
380 6 746
381 6 210
382 6 948
383 6 741
384 6 497
385 6 974
386 5 213
387 5 589
388 5 368
389 5 354
390 5 425
391 5 68
392 5 230
393 5 318
394 5 644
395 5 623
396 5 411
397 5 272
398 5 247
399 5 87
400 5 710
